c generated by sgen
p cnf 105 220
-2 -3 -4 0
-1 -3 -4 0
-1 -2 -4 0
-1 -2 -3 0
-6 -7 -8 0
-5 -7 -8 0
-5 -6 -8 0
-5 -6 -7 0
-10 -11 -12 0
-9 -11 -12 0
-9 -10 -12 0
-9 -10 -11 0
-14 -15 -16 0
-13 -15 -16 0
-13 -14 -16 0
-13 -14 -15 0
-18 -19 -20 0
-17 -19 -20 0
-17 -18 -20 0
-17 -18 -19 0
-22 -23 -24 0
-21 -23 -24 0
-21 -22 -24 0
-21 -22 -23 0
-26 -27 -28 0
-25 -27 -28 0
-25 -26 -28 0
-25 -26 -27 0
-30 -31 -32 0
-29 -31 -32 0
-29 -30 -32 0
-29 -30 -31 0
-34 -35 -36 0
-33 -35 -36 0
-33 -34 -36 0
-33 -34 -35 0
-38 -39 -40 0
-37 -39 -40 0
-37 -38 -40 0
-37 -38 -39 0
-42 -43 -44 0
-41 -43 -44 0
-41 -42 -44 0
-41 -42 -43 0
-46 -47 -48 0
-45 -47 -48 0
-45 -46 -48 0
-45 -46 -47 0
-50 -51 -52 0
-49 -51 -52 0
-49 -50 -52 0
-49 -50 -51 0
-54 -55 -56 0
-53 -55 -56 0
-53 -54 -56 0
-53 -54 -55 0
-58 -59 -60 0
-57 -59 -60 0
-57 -58 -60 0
-57 -58 -59 0
-62 -63 -64 0
-61 -63 -64 0
-61 -62 -64 0
-61 -62 -63 0
-66 -67 -68 0
-65 -67 -68 0
-65 -66 -68 0
-65 -66 -67 0
-70 -71 -72 0
-69 -71 -72 0
-69 -70 -72 0
-69 -70 -71 0
-74 -75 -76 0
-73 -75 -76 0
-73 -74 -76 0
-73 -74 -75 0
-78 -79 -80 0
-77 -79 -80 0
-77 -78 -80 0
-77 -78 -79 0
-82 -83 -84 0
-81 -83 -84 0
-81 -82 -84 0
-81 -82 -83 0
-86 -87 -88 0
-85 -87 -88 0
-85 -86 -88 0
-85 -86 -87 0
-90 -91 -92 0
-89 -91 -92 0
-89 -90 -92 0
-89 -90 -91 0
-94 -95 -96 0
-93 -95 -96 0
-93 -94 -96 0
-93 -94 -95 0
-98 -99 -100 0
-97 -99 -100 0
-97 -98 -100 0
-97 -98 -99 0
-101 -102 -103 0
-101 -102 -104 0
-101 -102 -105 0
-101 -103 -104 0
-101 -103 -105 0
-101 -104 -105 0
-102 -103 -104 0
-102 -103 -105 0
-102 -104 -105 0
-103 -104 -105 0
101 48 83 0
44 48 83 0
44 101 83 0
44 101 48 0
38 67 17 0
82 67 17 0
82 38 17 0
82 38 67 0
97 85 7 0
57 85 7 0
57 97 7 0
57 97 85 0
86 94 14 0
91 94 14 0
91 86 14 0
91 86 94 0
39 78 99 0
1 78 99 0
1 39 99 0
1 39 78 0
81 11 29 0
58 11 29 0
58 81 29 0
58 81 11 0
47 80 76 0
72 80 76 0
72 47 76 0
72 47 80 0
40 75 102 0
35 75 102 0
35 40 102 0
35 40 75 0
90 26 37 0
46 26 37 0
46 90 37 0
46 90 26 0
49 66 9 0
15 66 9 0
15 49 9 0
15 49 66 0
104 22 18 0
52 22 18 0
52 104 18 0
52 104 22 0
103 62 92 0
32 62 92 0
32 103 92 0
32 103 62 0
51 98 84 0
27 98 84 0
27 51 84 0
27 51 98 0
65 63 33 0
96 63 33 0
96 65 33 0
96 65 63 0
93 21 70 0
3 21 70 0
3 93 70 0
3 93 21 0
105 8 55 0
69 8 55 0
69 105 55 0
69 105 8 0
4 73 12 0
89 73 12 0
89 4 12 0
89 4 73 0
100 42 24 0
61 42 24 0
61 100 24 0
61 100 42 0
68 5 30 0
74 5 30 0
74 68 30 0
74 68 5 0
10 6 20 0
43 6 20 0
43 10 20 0
43 10 6 0
87 77 36 0
23 77 36 0
23 87 36 0
23 87 77 0
45 59 95 0
56 59 95 0
56 45 95 0
56 45 59 0
28 88 71 0
19 88 71 0
19 28 71 0
19 28 88 0
41 34 54 0
50 34 54 0
50 41 54 0
50 41 34 0
79 13 60 0
64 13 60 0
64 79 60 0
64 79 13 0
16 2 31 0
16 2 53 0
16 2 25 0
16 31 53 0
16 31 25 0
16 53 25 0
2 31 53 0
2 31 25 0
2 53 25 0
31 53 25 0
